n_res = 3;
rcap = [20, 64, 49];
rtype = [1, 2, 2];
n_tasks = 16;
modes = [ {1, 2, 3}, {4, 5, 6}, {7, 8, 9}, {10, 11, 12}, {13, 14, 15}, {16, 17, 18}, {19, 20, 21}, {22, 23, 24}, {25, 26, 27}, {28, 29, 30}, {31, 32, 33}, {34, 35, 36}, {37, 38, 39}, {40, 41, 42}, {43, 44, 45}, {46, 47, 48} ];
succ = [ {5, 8, 13}, {7, 14, 16}, {4, 5, 6}, {7, 10, 14}, {9, 16}, {9, 12}, {9, 12}, {11, 14}, {15}, {11, 13}, {12}, {15}, {15, 16}, {}, {}, {} ];
n_opt = 48;
dur = [2, 5, 10, 2, 5, 9, 5, 7, 10, 3, 9, 9, 2, 9, 10, 2, 4, 7, 1, 6, 9, 5, 8, 9, 6, 8, 8, 6, 7, 10, 1, 6, 6, 2, 5, 8, 2, 4, 9, 4, 5, 5, 2, 3, 4, 1, 5, 5];
rreq = [|  8,  5,  3,  9,  8,  8,  6,  6,  6,  2,  1,  1,  6,  4,  3,  7,  6,  5,  3,  3,  2,  7,  7,  6,  7,  3,  1,  7,  7,  6,  4,  1,  4,  4,  4,  4,  9,  9,  8,  8,  3,  7, 10,  9,  9,  8,  5,  3
        |  8,  8,  8,  0,  8,  7,  0,  5,  0,  0,  0,  3,  9,  4,  0,  8,  0,  0,  0,  4,  0,  8,  7,  0, 10,  0,  0,  6,  0,  4, 10,  9,  0,  0,  0,  3,  9,  0,  0,  0,  9,  7, 10,  0,  0,  9,  0,  7
        |  0,  0,  0,  9,  0,  0,  9,  0,  4,  6,  5,  0,  0,  0,  3,  0,  9,  7,  8,  0,  7,  0,  0,  6,  0,  1,  2,  0,  4,  0,  0,  0,  7, 10,  5,  0,  0,  7,  6,  7,  0,  0,  0,  5,  4,  0,  6,  0 |];
